NAME: synthetic_10_2.vrp
COMMENT: Synthetic VRP instance with 10 customers, 2 vehicles
TYPE: CVRP
DIMENSION: 11
EDGE_WEIGHT_TYPE: EUC_2D
CAPACITY: 50
NODE_COORD_SECTION
1 0 0
2 81 14
3 3 94
4 35 31
5 28 17
6 94 13
7 86 94
8 69 11
9 75 54
10 4 3
11 11 27
DEMAND_SECTION
1 0
2 8
3 17
4 20
5 1
6 18
7 7
8 23
9 21
10 23
11 18
DEPOT_SECTION
1
-1
EOF
